data/solutions/recovery/wellformed/moderate/flexible/wellformed_moderate_instance64/65.sol
Elapsed time: 0.64
Upper bound: 4861.0
Planning weighted value: 130800.0
C[0]=4861.0
C[1]=4861.0
C[2]=4861.0
C[3]=4861.0
C[4]=0.0
y[0]=0
y[1]=1
y[2]=1
y[3]=2
y[4]=3
y[5]=2
y[6]=3
y[7]=3
y[8]=0
y[9]=1
y[10]=2
y[11]=0
y[12]=3
y[13]=2
y[14]=2
y[15]=2
y[16]=3
y[17]=3
y[18]=3
y[19]=3
y[20]=0
y[21]=2
y[22]=2
y[23]=1
y[24]=0
y[25]=0
y[26]=1
y[27]=2
y[28]=2
y[29]=2
y[30]=0
y[31]=1
y[32]=2
y[33]=2
y[34]=0
y[35]=2
y[36]=0
y[37]=3
y[38]=1
y[39]=2
y[40]=0
